! PBE0
! opt
*xyzfile 0 1 Dihydrogen.xyz *