! PBE0
! opt anfreq
* xyzfile 0 1 ethanoic_acid.xyz *