! PBE0
! opt anfreq
* xyzfile 0 2 methyl.xyz *