! PBE0
! opt anfreq
* xyzfile 0 2 propyl.xyz *